FILENAME:   /home/mcs001/s132664/testsets/IP/miplib2017/chromaticindex32-8.mps.gz
SETTINGS:   settings_final_nosym_norestarts
TIMELIMIT:  7200
OUTPUTNAME: final_miplib_symretope_if_extended_generating_set_cpx_v802__settings_final_nosym_norestarts__1__
BINNAME:    bin/sbcs.linux.x86_64.gnu.opt.cpx
BASENAME:   chromaticindex32-8.mps.gz
SEED:       1
@01 /home/mcs001/s132664/testsets/IP/miplib2017/chromaticindex32-8.mps.gz ===========
@02 chromaticindex32-8.mps.gz
@03 1686649413
SCIP version 8.0.2 [precision: 8 byte] [memory: block] [mode: optimized] [LP solver: CPLEX 20.1.0.0] [GitHash: 5f0473c]
Copyright (C) 2002-2022 Konrad-Zuse-Zentrum fuer Informationstechnik Berlin (ZIB)

Symretope propagation methods - (c) Jasper van Doornmalen, Christopher Hojny.
[GitHash: 2fd0484]

reading parameter file <../settings/settings_final_nosym_norestarts.set> ...

Changed settings:
limits/time = 7200
limits/restarts = 0
misc/usesymmetry = 0
randomization/randomseedshift = 1
constraints/orbisack/sepafreq = -1
constraints/symresack/sepafreq = -1
propagating/symmetry/detectsubgroups = FALSE
propagating/symmetry/usesymretopes = FALSE
propagating/symmetry/relabelsymretopes = 0
propagating/symmetry/ofsymcomptiming = 0
constraints/symretope/sepafreq = -1
constraints/symretope/peek = FALSE


solving problem ...

original problem has 2304 variables (2304 bin, 0 int, 0 impl, 0 cont) and 2111 constraints
presolving:
(round 1, exhaustive) 0 del vars, 0 del conss, 0 add conss, 0 chg bounds, 0 chg sides, 0 chg coeffs, 2111 upgd conss, 0 impls, 2111 clqs
   (0.0s) probing: 51/2304 (2.2%) - 0 fixings, 0 aggregations, 0 implications, 0 bound changes
   (0.0s) probing aborted: 50/50 successive totally useless probings
presolving (2 rounds: 2 fast, 2 medium, 2 exhaustive):
 0 deleted vars, 0 deleted constraints, 0 added constraints, 0 tightened bounds, 0 added holes, 0 changed sides, 0 changed coefficients
 0 implications, 2111 cliques
presolved problem has 2304 variables (2304 bin, 0 int, 0 impl, 0 cont) and 2111 constraints
   2111 constraints of type <setppc>
transformed objective value is always integral (scale: 1)
Presolving Time: 0.04

 time | node  | left  |LP iter|LP it/n|mem/heur|mdpt |vars |cons |rows |cuts |sepa|confs|strbr|  dualbound   | primalbound  |  gap   | compl. 
p 0.1s|     1 |     0 |     0 |     - | vbounds|   0 |2304 |2125 |2111 |   0 |  0 |  13 |   0 | 0.000000e+00 | 4.000000e+00 |    Inf | unknown
  0.1s|     1 |     0 |     1 |     - |    19M |   0 |2304 |2125 |2111 |   0 |  0 |  13 |   0 | 3.000000e+00 | 4.000000e+00 |  33.33%| unknown
  0.3s|     1 |     0 |   197 |     - |    22M |   0 |2304 |2126 |2112 |   1 |  1 |  14 |   0 | 3.000000e+00 | 4.000000e+00 |  33.33%| unknown
  0.4s|     1 |     0 |   520 |     - |    24M |   0 |2304 |2127 |2114 |   3 |  2 |  15 |   0 | 3.000000e+00 | 4.000000e+00 |  33.33%| unknown
  0.5s|     1 |     0 |   810 |     - |    27M |   0 |2304 |2128 |2116 |   5 |  3 |  16 |   0 | 3.000000e+00 | 4.000000e+00 |  33.33%| unknown
  0.7s|     1 |     0 |  1100 |     - |    31M |   0 |2304 |2129 |2118 |   7 |  4 |  17 |   0 | 3.000000e+00 | 4.000000e+00 |  33.33%| unknown
  0.8s|     1 |     0 |  1560 |     - |    31M |   0 |2304 |2130 |2120 |   9 |  5 |  18 |   0 | 3.000000e+00 | 4.000000e+00 |  33.33%| unknown
  0.9s|     1 |     0 |  1913 |     - |    32M |   0 |2304 |2131 |2122 |  11 |  6 |  19 |   0 | 3.000000e+00 | 4.000000e+00 |  33.33%| unknown
  1.1s|     1 |     0 |  2349 |     - |    36M |   0 |2304 |2132 |2124 |  13 |  7 |  20 |   0 | 3.000000e+00 | 4.000000e+00 |  33.33%| unknown
  1.2s|     1 |     0 |  2713 |     - |    40M |   0 |2304 |2133 |2126 |  15 |  8 |  21 |   0 | 3.000000e+00 | 4.000000e+00 |  33.33%| unknown
  1.4s|     1 |     0 |  3077 |     - |    43M |   0 |2304 |2134 |2128 |  17 |  9 |  22 |   0 | 3.000000e+00 | 4.000000e+00 |  33.33%| unknown
  1.5s|     1 |     0 |  3439 |     - |    44M |   0 |2304 |2135 |2130 |  19 | 10 |  23 |   0 | 3.000000e+00 | 4.000000e+00 |  33.33%| unknown
  1.6s|     1 |     0 |  3841 |     - |    45M |   0 |2304 |2136 |2133 |  22 | 11 |  24 |   0 | 3.000000e+00 | 4.000000e+00 |  33.33%| unknown
  3.0s|     1 |     2 |  5470 |     - |    45M |   0 |2304 |2146 |2133 |  22 | 11 |  34 |  11 | 3.000000e+00 | 4.000000e+00 |  33.33%| unknown
  4.9s|   100 |    45 | 15231 | 115.1 |    48M |  26 |2304 |2311 |2144 |  55 |  1 | 199 |  11 | 3.000000e+00 | 4.000000e+00 |  33.33%|   1.15%
 time | node  | left  |LP iter|LP it/n|mem/heur|mdpt |vars |cons |rows |cuts |sepa|confs|strbr|  dualbound   | primalbound  |  gap   | compl. 
  5.8s|   200 |    93 | 20275 |  82.6 |    50M |  61 |2304 |2348 |2148 |  69 |  1 | 236 |  11 | 3.000000e+00 | 4.000000e+00 |  33.33%|   2.29%
  6.9s|   300 |   115 | 26398 |  75.4 |    50M |  61 |2304 |2408 |2148 |  82 |  0 | 296 |  11 | 3.000000e+00 | 4.000000e+00 |  33.33%|   2.29%
  7.6s|   400 |   130 | 30146 |  65.9 |    51M |  61 |2304 |2491 |2144 |  94 |  0 | 379 |  11 | 3.000000e+00 | 4.000000e+00 |  33.33%|   2.29%
  8.5s|   500 |   140 | 35998 |  64.4 |    54M |  61 |2304 |2542 |2144 | 183 |  1 | 430 |  11 | 3.000000e+00 | 4.000000e+00 |  33.33%|   2.29%
  9.3s|   600 |   117 | 41538 |  62.9 |    55M |  61 |2304 |2561 |2143 | 189 |  1 | 449 |  11 | 3.000000e+00 | 4.000000e+00 |  33.33%|   2.29%
 10.4s|   700 |   150 | 47267 |  62.1 |    56M |  61 |2304 |2601 |2156 | 252 |  0 | 489 |  11 | 3.000000e+00 | 4.000000e+00 |  33.33%|   2.29%
 11.2s|   800 |   181 | 51619 |  59.8 |    57M |  61 |2304 |2695 |2156 | 292 |  0 | 583 |  11 | 3.000000e+00 | 4.000000e+00 |  33.33%|   2.29%
 11.8s|   900 |   185 | 54061 |  55.9 |    57M |  61 |2304 |2714 |2157 | 310 |  4 | 602 |  11 | 3.000000e+00 | 4.000000e+00 |  33.33%|   2.29%
 12.5s|  1000 |   192 | 58492 |  54.7 |    57M |  61 |2304 |2719 |2153 | 344 |  0 | 607 |  11 | 3.000000e+00 | 4.000000e+00 |  33.33%|   2.29%
 13.0s|  1100 |   188 | 60782 |  51.8 |    57M |  61 |2304 |2729 |2156 | 347 |  1 | 617 |  11 | 3.000000e+00 | 4.000000e+00 |  33.33%|   2.29%
 13.6s|  1200 |   196 | 63874 |  50.1 |    57M |  63 |2304 |2747 |2159 | 371 |  1 | 635 |  11 | 3.000000e+00 | 4.000000e+00 |  33.33%|   2.29%
 14.2s|  1300 |   204 | 67561 |  49.1 |    57M |  63 |2304 |2765 |2154 | 412 |  0 | 653 |  11 | 3.000000e+00 | 4.000000e+00 |  33.33%|   2.29%
 14.7s|  1400 |   210 | 71367 |  48.3 |    57M |  63 |2304 |2778 |2154 | 414 |  0 | 666 |  11 | 3.000000e+00 | 4.000000e+00 |  33.33%|   2.29%
 15.3s|  1500 |   208 | 75671 |  47.9 |    57M |  63 |2304 |2778 |2156 | 434 |  0 | 666 |  11 | 3.000000e+00 | 4.000000e+00 |  33.33%|   2.29%
 16.0s|  1600 |   226 | 79761 |  47.5 |    58M |  63 |2304 |2813 |2153 | 469 |  1 | 701 |  11 | 3.000000e+00 | 4.000000e+00 |  33.33%|   2.29%
 time | node  | left  |LP iter|LP it/n|mem/heur|mdpt |vars |cons |rows |cuts |sepa|confs|strbr|  dualbound   | primalbound  |  gap   | compl. 
 16.5s|  1700 |   230 | 83554 |  46.9 |    58M |  63 |2304 |2813 |2153 | 487 |  0 | 701 |  11 | 3.000000e+00 | 4.000000e+00 |  33.33%|   2.29%
 17.4s|  1800 |   207 | 88713 |  47.2 |    58M |  63 |2304 |2865 |2150 | 524 |  1 | 754 |  11 | 3.000000e+00 | 4.000000e+00 |  33.33%|   2.29%
 18.2s|  1900 |   169 | 94178 |  47.6 |    58M |  63 |2304 |2875 |2153 | 547 |  0 | 764 |  11 | 3.000000e+00 | 4.000000e+00 |  33.33%|   2.29%
 18.8s|  2000 |   171 | 97238 |  46.7 |    58M |  63 |2304 |2887 |2149 | 554 |  0 | 776 |  11 | 3.000000e+00 | 4.000000e+00 |  33.33%|   2.29%
 19.5s|  2100 |   180 |100683 |  46.1 |    58M |  63 |2304 |2894 |2148 | 570 |  1 | 783 |  11 | 3.000000e+00 | 4.000000e+00 |  33.33%|   2.29%
 20.6s|  2200 |   208 |105161 |  46.1 |    59M |  63 |2304 |2968 |2151 | 651 |  1 | 857 |  11 | 3.000000e+00 | 4.000000e+00 |  33.33%|   2.29%
 21.3s|  2300 |   148 |108142 |  45.4 |    59M |  64 |2304 |3011 |2141 | 675 |  1 | 900 |  11 | 3.000000e+00 | 4.000000e+00 |  33.33%|   2.29%
 22.4s|  2400 |   157 |113505 |  45.7 |    60M |  64 |2304 |3029 |2156 | 759 |  0 | 918 |  11 | 3.000000e+00 | 4.000000e+00 |  33.33%|   2.29%
 23.7s|  2500 |   151 |117759 |  45.6 |    60M |  64 |2304 |3029 |2158 | 833 |  1 | 918 |  11 | 3.000000e+00 | 4.000000e+00 |  33.33%|   2.29%
 24.8s|  2600 |   141 |122075 |  45.5 |    61M |  64 |2304 |3032 |2144 | 909 |  0 | 921 |  11 | 3.000000e+00 | 4.000000e+00 |  33.33%|   2.29%
 26.0s|  2700 |   141 |128129 |  46.0 |    61M |  64 |2304 |3039 |2161 | 983 |  1 | 931 |  11 | 3.000000e+00 | 4.000000e+00 |  33.33%|   2.29%
 26.8s|  2800 |   127 |131202 |  45.5 |    61M |  64 |2304 |3036 |2142 |1001 |  1 | 931 |  11 | 3.000000e+00 | 4.000000e+00 |  33.33%|   2.29%
 27.7s|  2900 |   142 |136430 |  45.7 |    61M |  64 |2304 |3035 |2135 |1053 |  1 | 931 |  11 | 3.000000e+00 | 4.000000e+00 |  33.33%|   2.29%
 28.8s|  3000 |   154 |142808 |  46.3 |    62M |  64 |2304 |3056 |2143 |1127 |  0 | 957 |  11 | 3.000000e+00 | 4.000000e+00 |  33.33%|   2.38%
Restart triggered after 50 consecutive estimations that the remaining tree will be large
 29.4s|  3100 |   156 |145627 |  45.8 |    62M |  64 |2304 |3054 |2143 |1149 |  1 | 959 |  11 | 3.000000e+00 | 4.000000e+00 |  33.33%|   2.38%
 time | node  | left  |LP iter|LP it/n|mem/heur|mdpt |vars |cons |rows |cuts |sepa|confs|strbr|  dualbound   | primalbound  |  gap   | compl. 
 30.5s|  3200 |   139 |149896 |  45.7 |    62M |  64 |2304 |3053 |   0 |1260 |  0 | 959 |  11 | 3.000000e+00 | 4.000000e+00 |  33.33%|   2.38%
 31.6s|  3300 |   115 |156159 |  46.2 |    64M |  64 |2304 |3082 |2135 |1285 |  1 | 993 |  11 | 3.000000e+00 | 4.000000e+00 |  33.33%|   2.43%
 33.4s|  3400 |   100 |162189 |  46.6 |    64M |  64 |2304 |3210 |2139 |1293 |  1 |1124 |  11 | 3.000000e+00 | 4.000000e+00 |  33.33%|   2.50%
 34.7s|  3500 |    66 |166495 |  46.5 |    64M |  64 |2304 |3265 |2140 |1317 |  1 |1185 |  11 | 3.000000e+00 | 4.000000e+00 |  33.33%|   6.44%

SCIP Status        : problem is solved [optimal solution found]
Solving Time (sec) : 37.15
Solving Nodes      : 3563
Primal Bound       : +4.00000000000000e+00 (2 solutions)
Dual Bound         : +4.00000000000000e+00
Gap                : 0.00 %
SCIP Status        : problem is solved [optimal solution found]
Total Time         :      37.16
  solving          :      37.15
  presolving       :       0.04 (included in solving)
  reading          :       0.01
  copying          :       0.51 (61 #copies) (minimal 0.01, maximal 0.01, average 0.01)
Original Problem   :
  Problem name     : chromaticindex32-8
  Variables        : 2304 (2304 binary, 0 integer, 0 implicit integer, 0 continuous)
  Constraints      : 2111 initial, 2111 maximal
  Objective        : minimize, 4 non-zeros (abs.min = 1, abs.max = 1)
Presolved Problem  :
  Problem name     : t_chromaticindex32-8
  Variables        : 2304 (2304 binary, 0 integer, 0 implicit integer, 0 continuous)
  Constraints      : 2111 initial, 3305 maximal
  Objective        : minimize, 4 non-zeros (abs.min = 1, abs.max = 1)
  Nonzeros         : 8436 constraint, 8458 clique table
Presolvers         :   ExecTime  SetupTime  Calls  FixedVars   AggrVars   ChgTypes  ChgBounds   AddHoles    DelCons    AddCons   ChgSides   ChgCoefs
  boundshift       :       0.00       0.00      0          0          0          0          0          0          0          0          0          0
  convertinttobin  :       0.00       0.00      0          0          0          0          0          0          0          0          0          0
  domcol           :       0.00       0.00      1          0          0          0          0          0          0          0          0          0
  dualagg          :       0.00       0.00      0          0          0          0          0          0          0          0          0          0
  dualcomp         :       0.00       0.00      0          0          0          0          0          0          0          0          0          0
  dualinfer        :       0.00       0.00      0          0          0          0          0          0          0          0          0          0
  dualsparsify     :       0.00       0.00      1          0          0          0          0          0          0          0          0          0
  gateextraction   :       0.00       0.00      0          0          0          0          0          0          0          0          0          0
  implics          :       0.00       0.00      2          0          0          0          0          0          0          0          0          0
  inttobinary      :       0.00       0.00      0          0          0          0          0          0          0          0          0          0
  qpkktref         :       0.00       0.00      0          0          0          0          0          0          0          0          0          0
  redvub           :       0.00       0.00      0          0          0          0          0          0          0          0          0          0
  sparsify         :       0.00       0.00      1          0          0          0          0          0          0          0          0          0
  stuffing         :       0.00       0.00      0          0          0          0          0          0          0          0          0          0
  trivial          :       0.00       0.00      2          0          0          0          0          0          0          0          0          0
  tworowbnd        :       0.00       0.00      0          0          0          0          0          0          0          0          0          0
  dualfix          :       0.00       0.00      2          0          0          0          0          0          0          0          0          0
  genvbounds       :       0.00       0.00      0          0          0          0          0          0          0          0          0          0
  probing          :       0.01       0.00      1          0          0          0          0          0          0          0          0          0
  pseudoobj        :       0.00       0.00      0          0          0          0          0          0          0          0          0          0
  symmetry         :       0.00       0.00      0          0          0          0          0          0          0          0          0          0
  vbounds          :       0.00       0.00      1          0          0          0          0          0          0          0          0          0
  knapsack         :       0.00       0.00      0          0          0          0          0          0          0          0          0          0
  setppc           :       0.00       0.00      3          0          0          0          0          0          0          0          0          0
  linear           :       0.01       0.00      2          0          0          0          0          0          0          0          0          0
  logicor          :       0.00       0.00      0          0          0          0          0          0          0          0          0          0
  benders          :       0.00       0.00      0          0          0          0          0          0          0          0          0          0
  components       :       0.00       0.00      1          0          0          0          0          0          0          0          0          0
  root node        :          -          -      -          1          -          -          1          -          -          -          -          -
Constraints        :     Number  MaxNumber  #Separate #Propagate    #EnfoLP    #EnfoRelax  #EnfoPS    #Check   #ResProp    Cutoffs    DomReds       Cuts    Applied      Conss   Children
  benderslp        :          0          0          0          0       1940          0          0        324          0          0          0          0          0          0          0
  integral         :          0          0          0          0       1940          0          0        324          0          0          0          0          0          0       3880
  knapsack         :          0+        47          0      22787          0          0          0          0         80          7        313          0          0          0          0
  setppc           :       2111+      2128         11      31885          0          0          0        319      11733        258      34802          0          0          0          0
  linear           :          0+        63          0      23870          0          0          0          0        108         25        468          0          0          0          0
  logicor          :          0+      1084         11       7903          0          0          0          0        658         32       1683          0          0          0          0
  benders          :          0          0          0          0          0          0          0          3          0          0          0          0          0          0          0
  countsols        :          0          0          0          0          0          0          0          3          0          0          0          0          0          0          0
  components       :          0          0          0          0          0          0          0          0          0          0          0          0          0          0          0
Constraint Timings :  TotalTime  SetupTime   Separate  Propagate     EnfoLP     EnfoPS     EnfoRelax   Check    ResProp    SB-Prop
  benderslp        :       0.00       0.00       0.00       0.00       0.00       0.00       0.00       0.00       0.00       0.00
  integral         :       1.54       0.00       0.00       0.00       1.54       0.00       0.00       0.00       0.00       0.00
  knapsack         :       0.01       0.00       0.00       0.01       0.00       0.00       0.00       0.00       0.00       0.00
  setppc           :       0.15       0.00       0.00       0.14       0.00       0.00       0.00       0.00       0.00       0.00
  linear           :       0.02       0.00       0.00       0.01       0.00       0.00       0.00       0.00       0.00       0.00
  logicor          :       0.05       0.00       0.00       0.05       0.00       0.00       0.00       0.00       0.00       0.00
  benders          :       0.00       0.00       0.00       0.00       0.00       0.00       0.00       0.00       0.00       0.00
  countsols        :       0.00       0.00       0.00       0.00       0.00       0.00       0.00       0.00       0.00       0.00
  components       :       0.00       0.00       0.00       0.00       0.00       0.00       0.00       0.00       0.00       0.00
Propagators        : #Propagate   #ResProp    Cutoffs    DomReds
  dualfix          :          2          0          0          0
  genvbounds       :          0          0          0          0
  nlobbt           :          0          0          0          0
  obbt             :          0          0          0          0
  probing          :          0          0          0          0
  pseudoobj        :      18234          0          0          0
  redcost          :         13          0          0          0
  rootredcost      :          0          0          0          0
  symmetry         :          0          0          0          0
  vbounds          :      15694          0          0          0
Propagator Timings :  TotalTime  SetupTime   Presolve  Propagate    ResProp    SB-Prop
  dualfix          :       0.00       0.00       0.00       0.00       0.00       0.00
  genvbounds       :       0.00       0.00       0.00       0.00       0.00       0.00
  nlobbt           :       0.00       0.00       0.00       0.00       0.00       0.00
  obbt             :       0.00       0.00       0.00       0.00       0.00       0.00
  probing          :       0.01       0.00       0.01       0.00       0.00       0.00
  pseudoobj        :       0.01       0.00       0.00       0.01       0.00       0.00
  redcost          :       0.01       0.00       0.00       0.01       0.00       0.00
  rootredcost      :       0.00       0.00       0.00       0.00       0.00       0.00
  symmetry         :       0.00       0.00       0.00       0.00       0.00       0.00
  vbounds          :       0.05       0.00       0.00       0.05       0.00       0.00
Conflict Analysis  :       Time      Calls    Success    DomReds  Conflicts   Literals    Reconvs ReconvLits   Dualrays   Nonzeros   LP Iters   (pool size: [10000,10000])
  propagation      :       0.01        301        277          -        907       15.8         68       14.1          -          -          -
  infeasible LP    :       0.03         73         70          -        249       22.1         11       15.1         70       23.6          0
  bound exceed. LP :       0.04         56         43          -        156       15.9          6       10.2         43       22.7         30
  strong branching :       0.00          0          0          -          0        0.0          0        0.0          -          -          0
  pseudo solution  :       0.00          0          0          -          0        0.0          0        0.0          -          -          -
  applied globally :       0.01          -          -          0       1117       11.1          -          -        112          -          -
  applied locally  :          -          -          -          0          0        0.0          -          -          1          -          -
Separators         :   ExecTime  SetupTime      Calls  RootCalls    Cutoffs    DomReds  FoundCuts ViaPoolAdd  DirectAdd    Applied ViaPoolApp  DirectApp      Conss
  cut pool         :       0.70          -        621         21          -          -      10400      12625          -          -          -          -          -    (maximal pool size:       3319)
  aggregation      :       0.19       0.00        216         11          0          0         36         13         34          0          0          0          0
  > cmir           :          -          -          -          -          -          -          -         13          0          0          0          0          -
  > flowcover      :          -          -          -          -          -          -          -          0          0          0          0          0          -
  > knapsackcover  :          -          -          -          -          -          -          -          0         34          0          0          0          -
  cgmip            :       0.00       0.00          0          0          0          0          0          0          0          0          0          0          0
  clique           :       0.22       0.00         11         11          0          0          0          0          0          0          0          0          0
  closecuts        :       0.00       0.00          0          0          0          0          0          0          0          0          0          0          0
  convexproj       :       0.00       0.00          0          0          0          0          0          0          0          0          0          0          0
  disjunctive      :       0.00       0.00          0          0          0          0          0          0          0          0          0          0          0
  eccuts           :       0.00       0.00          0          0          0          0          0          0          0          0          0          0          0
  gauge            :       0.00       0.00          0          0          0          0          0          0          0          0          0          0          0
  gomory           :       2.34       0.00        216         10          0          0      12368      11305       2086        595        416        179          0
  > gomorymi       :          -          -          -          -          -          -          -       2235       1043        199         74        125          -
  > strongcg       :          -          -          -          -          -          -          -       9070       1043        396        342         54          -
  impliedbounds    :       0.02       0.00        217         11          0          0          0          0          0          0          0          0          0
  interminor       :       0.00       0.00          0          0          0          0          0          0          0          0          0          0          0
  intobj           :       0.00       0.00          0          0          0          0          0          0          0          0          0          0          0
  mcf              :       0.00       0.00          1          1          0          0          0          0          0          0          0          0          0
  minor            :       0.00       0.00          0          0          0          0          0          0          0          0          0          0          0
  mixing           :       0.00       0.00          0          0          0          0          0          0          0          0          0          0          0
  oddcycle         :       0.00       0.00          0          0          0          0          0          0          0          0          0          0          0
  rapidlearning    :       3.42       0.00         50          1          0       8625          0          0          0          0          0          0        163
  rlt              :       0.00       0.00         10         10          0          0          0          0          0          0          0          0          0
  zerohalf         :       1.02       0.00        216         11          0          0        538       1307        422        736        529        207          0
Cutselectors       :   ExecTime  SetupTime      Calls  RootCalls   Selected     Forced   Filtered  RootSelec   RootForc   RootFilt 
  hybrid           :       0.02       0.00        351         11       1331          0      13536         22          0       1434
Pricers            :   ExecTime  SetupTime      Calls       Vars
  problem variables:       0.00          -          0          0
Branching Rules    :   ExecTime  SetupTime   BranchLP  BranchExt   BranchPS    Cutoffs    DomReds       Cuts      Conss   Children
  allfullstrong    :       0.00       0.00          0          0          0          0          0          0          0          0
  cloud            :       0.00       0.00          0          0          0          0          0          0          0          0
  distribution     :       0.00       0.00          0          0          0          0          0          0          0          0
  fullstrong       :       0.00       0.00          0          0          0          0          0          0          0          0
  inference        :       0.00       0.00          0          0          0          0          0          0          0          0
  leastinf         :       0.00       0.00          0          0          0          0          0          0          0          0
  lookahead        :       0.00       0.00          0          0          0          0          0          0          0          0
  mostinf          :       0.00       0.00          0          0          0          0          0          0          0          0
  multaggr         :       0.00       0.00          0          0          0          0          0          0          0          0
  nodereopt        :       0.00       0.00          0          0          0          0          0          0          0          0
  pscost           :       0.00       0.00          0          0          0          0          0          0          0          0
  random           :       0.00       0.00          0          0          0          0          0          0          0          0
  relpscost        :       1.54       0.00       1940          0          0          0          0          0          0       3880
  vanillafullstrong:       0.00       0.00          0          0          0          0          0          0          0          0
Primal Heuristics  :   ExecTime  SetupTime      Calls      Found       Best
  LP solutions     :       0.00          -          -          0          0
  relax solutions  :       0.00          -          -          0          0
  pseudo solutions :       0.00          -          -          0          0
  strong branching :       0.00          -          -          0          0
  actconsdiving    :       0.00       0.00          0          0          0
  adaptivediving   :       0.10       0.00         15          0          0
  alns             :       0.09       0.00          5          0          0
  bound            :       0.00       0.00          0          0          0
  clique           :       0.01       0.00          1          0          0
  coefdiving       :       0.00       0.00          0          0          0
  completesol      :       0.00       0.00          0          0          0
  conflictdiving   :       0.10       0.00          8          0          0
  crossover        :       0.00       0.00          0          0          0
  dins             :       0.00       0.00          0          0          0
  distributiondivin:       0.30       0.00          8          0          0
  dps              :       0.00       0.00          0          0          0
  dualval          :       0.00       0.00          0          0          0
  farkasdiving     :       0.00       0.00          0          0          0
  feaspump         :       0.41       0.00          4          1          0
  fixandinfer      :       0.00       0.00          0          0          0
  fracdiving       :       0.04       0.00          8          0          0
  gins             :       0.00       0.00          0          0          0
  guideddiving     :       0.06       0.00          8          0          0
  indicator        :       0.00       0.00          0          0          0
  intdiving        :       0.00       0.00          0          0          0
  intshifting      :       0.00       0.00          0          0          0
  linesearchdiving :       0.03       0.00          8          0          0
  localbranching   :       0.00       0.00          0          0          0
  locks            :       0.01       0.00          1          0          0
  lpface           :       0.01       0.00          0          0          0
  mpec             :       0.00       0.00          0          0          0
  multistart       :       0.00       0.00          0          0          0
  mutation         :       0.00       0.00          0          0          0
  nlpdiving        :       0.00       0.00          0          0          0
  objpscostdiving  :       1.07       0.00          5          0          0
  octane           :       0.00       0.00          0          0          0
  ofins            :       0.00       0.00          0          0          0
  oneopt           :       0.00       0.00          1          0          0
  padm             :       0.00       0.00          0          0          0
  proximity        :       0.00       0.00          0          0          0
  pscostdiving     :       0.05       0.00          8          0          0
  randrounding     :       0.08       0.00        326          0          0
  rens             :       0.00       0.00          0          0          0
  reoptsols        :       0.00       0.00          0          0          0
  repair           :       0.00       0.00          0          0          0
  rins             :       0.15       0.00          6          0          0
  rootsoldiving    :       0.38       0.00          4          0          0
  rounding         :       0.08       0.00        642          0          0
  shiftandpropagate:       0.00       0.00          0          0          0
  shifting         :       0.07       0.00        280          0          0
  simplerounding   :       0.00       0.00       2333          0          0
  subnlp           :       0.00       0.00          0          0          0
  trivial          :       0.00       0.00          2          0          0
  trivialnegation  :       0.00       0.00          0          0          0
  trustregion      :       0.00       0.00          0          0          0
  trysol           :       0.00       0.00          0          0          0
  twoopt           :       0.00       0.00          0          0          0
  undercover       :       0.00       0.00          0          0          0
  vbounds          :       0.02       0.00          1          1          1
  veclendiving     :       0.02       0.00          8          0          0
  zeroobj          :       0.00       0.00          0          0          0
  zirounding       :       0.04       0.00       1000          0          0
  other solutions  :          -          -          -          0          -
LP                 :       Time      Calls Iterations  Iter/call   Iter/sec  Time-0-It Calls-0-It    ItLimit
  primal LP        :       1.35        146          0       0.00       0.00       1.35        146
  dual LP          :      20.75       3854     160961      41.92    7756.56       0.03         14
  lex dual LP      :       0.00          0          0       0.00          -
  barrier LP       :       0.00          0          0       0.00          -       0.00          0
  resolve instable :       0.00          0          0       0.00          -
  diving/probing LP:       1.91        314      15837      50.44    8292.96
  strong branching :       1.09         11       9621     874.64    8829.99          -          -         10
    (at root node) :          -         11       9621     874.64          -
  conflict analysis:       0.01          3         30      10.00    2065.26
B&B Tree           :
  number of runs   :          1
  nodes            :       3563 (1940 internal, 1623 leaves)
  feasible leaves  :          0
  infeas. leaves   :        176
  objective leaves :       1447
  nodes (total)    :       3563 (1940 internal, 1623 leaves)
  nodes left       :          0
  max depth        :         64
  max depth (total):         64
  backtracks       :        838 (23.5%)
  early backtracks :          0 (0.0%)
  nodes exc. ref.  :          0 (0.0%)
  delayed cutoffs  :        318
  repropagations   :       1293 (1545 domain reductions, 49 cutoffs)
  avg switch length:       5.03
  switching time   :       1.73
Root Node          :
  First LP value   : +3.00000000000000e+00
  First LP Iters   :          1 (19.99 Iter/sec)
  First LP Time    :       0.05
  Final Dual Bound : +3.00000000000000e+00
  Final Root Iters :       3841
  Root LP Estimate : +3.05028168023640e+00
Solution           :
  Solutions found  :          2 (1 improvements)
  First Solution   : +4.00000000000000e+00   (in run 1, after 1 nodes, 0.08 seconds, depth 488, found by <vbounds>)
  Gap First Sol.   :   infinite
  Gap Last Sol.    :   infinite
  Primal Bound     : +4.00000000000000e+00   (in run 1, after 1 nodes, 0.08 seconds, depth 488, found by <vbounds>)
  Dual Bound       : +4.00000000000000e+00
  Gap              :       0.00 %
Integrals          :      Total       Avg%
  primal-dual      :     938.54      25.26
  primal-ref       :          -          - (not evaluated)
  dual-ref         :          -          - (not evaluated)
written solution information to file <results/final_miplib_symretope_if_extended_generating_set_cpx_v802__settings_final_nosym_norestarts__1__chromaticindex32-8.mps.gz.sol>
@04 1686649450
